
  32    1
  10

   0   0  11 2 3 4 5 6 7 10 11 12 18 19 
   5   2   6 31 29 15 13 9 8 
   9  10   8 30 28 27 22 16 15 14 9 
   7   4   4 27 15 14 13 
   3   5   7 31 27 25 23 22 16 15 
   3   5   7 28 27 26 24 22 21 17 
   2   9   4 30 23 20 13 
   2  10   6 28 26 24 23 22 16 
   4  10   6 26 25 24 23 21 20 
   6   7   6 29 27 25 23 21 20 
   6  10   5 28 27 22 21 20 
   4   4   5 27 24 23 21 20 
   7   7   4 26 25 22 21 
   6   8   3 25 23 20 
   3  10   2 24 21 
   9   5   1 20 
   2   9   1 20 
   9   9   1 22 
   6  10   1 20 
   4  10   1 32
   7   7   1 32
   1  10   1 32
   8  10   1 32
   4  10   1 32
  10   9   1 32
   3  10   1 32
   4   7   1 32
   6   9   1 32
   5   5   1 32
   9   9   1 32
   5  10   1 32
   0   0   0 
